objective value:                                12404
t_x_5                                               1 	(obj:1)
t_x_7                                               1 	(obj:38)
t_x_8                                               1 	(obj:6)
t_x_9                                               1 	(obj:8)
t_x_12                                              1 	(obj:32)
t_x_13                                              1 	(obj:30)
t_x_16                                              1 	(obj:0)
t_x_18                                              1 	(obj:20)
t_x_22                                              1 	(obj:5)
t_x_24                                              1 	(obj:47)
t_x_25                                              1 	(obj:19)
t_x_28                                              1 	(obj:30)
t_x_30                                              1 	(obj:23)
t_x_31                                              1 	(obj:13)
t_x_32                                              1 	(obj:0)
t_x_34                                              1 	(obj:38)
t_x_35                                              1 	(obj:55)
t_x_38                                              1 	(obj:28)
t_x_43                                              1 	(obj:13)
t_x_45                                              1 	(obj:2)
t_x_51                                              1 	(obj:6)
t_x_52                                              1 	(obj:16)
t_x_53                                              1 	(obj:34)
t_x_58                                              1 	(obj:1)
t_x_60                                              1 	(obj:36)
t_x_66                                              1 	(obj:34)
t_x_71                                              1 	(obj:42)
t_x_72                                              1 	(obj:29)
t_x_73                                              1 	(obj:44)
t_x_75                                              1 	(obj:11)
t_x_79                                              1 	(obj:55)
t_x_80                                              1 	(obj:5)
t_x_81                                              1 	(obj:36)
t_x_82                                              1 	(obj:58)
t_x_83                                              1 	(obj:45)
t_x_84                                              1 	(obj:6)
t_x_91                                              1 	(obj:11)
t_x_92                                              1 	(obj:12)
t_x_101                                             1 	(obj:8)
t_x_102                                             1 	(obj:0)
t_x_107                                             1 	(obj:84)
t_x_112                                             1 	(obj:13)
t_x_113                                             1 	(obj:6)
t_x_115                                             1 	(obj:28)
t_x_116                                             1 	(obj:39)
t_x_117                                             1 	(obj:32)
t_x_118                                             1 	(obj:3)
t_x_125                                             1 	(obj:19)
t_x_128                                             1 	(obj:46)
t_x_132                                             1 	(obj:20)
t_x_134                                             1 	(obj:3)
t_x_136                                             1 	(obj:24)
t_x_137                                             1 	(obj:11)
t_x_138                                             1 	(obj:8)
t_x_139                                             1 	(obj:28)
t_x_141                                             1 	(obj:42)
t_x_150                                             1 	(obj:0)
t_x_151                                             1 	(obj:17)
t_x_157                                             1 	(obj:69)
t_x_160                                             1 	(obj:67)
t_x_163                                             1 	(obj:16)
t_x_168                                             1 	(obj:7)
t_x_170                                             1 	(obj:1)
t_x_172                                             1 	(obj:2)
t_x_181                                             1 	(obj:13)
t_x_183                                             1 	(obj:26)
t_x_184                                             1 	(obj:60)
t_x_185                                             1 	(obj:38)
t_x_187                                             1 	(obj:23)
t_x_192                                             1 	(obj:36)
t_x_197                                             1 	(obj:69)
t_x_199                                             1 	(obj:45)
t_x_200                                             1 	(obj:58)
t_x_203                                             1 	(obj:0)
t_x_204                                             1 	(obj:48)
t_x_208                                             1 	(obj:21)
t_x_213                                             1 	(obj:16)
t_x_214                                             1 	(obj:24)
t_x_215                                             1 	(obj:1)
t_x_217                                             1 	(obj:54)
t_x_220                                             1 	(obj:41)
t_x_221                                             1 	(obj:10)
t_x_223                                             1 	(obj:29)
t_x_225                                             1 	(obj:15)
t_x_227                                             1 	(obj:4)
t_x_233                                             1 	(obj:29)
t_x_239                                             1 	(obj:6)
t_x_241                                             1 	(obj:29)
t_x_247                                             1 	(obj:3)
t_x_249                                             1 	(obj:2)
t_x_250                                             1 	(obj:4)
t_x_252                                             1 	(obj:2)
t_x_255                                             1 	(obj:27)
t_x_256                                             1 	(obj:0)
t_x_259                                             1 	(obj:15)
t_x_260                                             1 	(obj:22)
t_x_270                                             1 	(obj:16)
t_x_271                                             1 	(obj:31)
t_x_272                                             1 	(obj:3)
t_x_278                                             1 	(obj:15)
t_x_279                                             1 	(obj:14)
t_x_281                                             1 	(obj:53)
t_x_285                                             1 	(obj:47)
t_x_289                                             1 	(obj:29)
t_x_297                                             1 	(obj:30)
t_x_301                                             1 	(obj:24)
t_x_303                                             1 	(obj:23)
t_x_311                                             1 	(obj:3)
t_x_313                                             1 	(obj:8)
t_x_314                                             1 	(obj:21)
t_x_320                                             1 	(obj:1)
t_x_323                                             1 	(obj:7)
t_x_329                                             1 	(obj:22)
t_x_333                                             1 	(obj:36)
t_x_342                                             1 	(obj:6)
t_x_348                                             1 	(obj:9)
t_x_352                                             1 	(obj:27)
t_x_366                                             1 	(obj:63)
t_x_367                                             1 	(obj:1)
t_x_372                                             1 	(obj:27)
t_x_381                                             1 	(obj:26)
t_x_382                                             1 	(obj:16)
t_x_383                                             1 	(obj:2)
t_x_387                                             1 	(obj:11)
t_x_388                                             1 	(obj:38)
t_x_396                                             1 	(obj:30)
t_x_397                                             1 	(obj:25)
t_x_398                                             1 	(obj:27)
t_x_404                                             1 	(obj:13)
t_x_411                                             1 	(obj:9)
t_x_412                                             1 	(obj:20)
t_x_420                                             1 	(obj:7)
t_x_421                                             1 	(obj:9)
t_x_424                                             1 	(obj:10)
t_x_428                                             1 	(obj:1)
t_x_431                                             1 	(obj:15)
t_x_434                                             1 	(obj:57)
t_x_446                                             1 	(obj:30)
t_x_457                                             1 	(obj:2)
t_x_459                                             1 	(obj:24)
t_x_461                                             1 	(obj:45)
t_x_465                                             1 	(obj:21)
t_x_467                                             1 	(obj:4)
t_x_473                                             1 	(obj:4)
t_x_475                                             1 	(obj:18)
t_x_479                                             1 	(obj:28)
t_x_480                                             1 	(obj:38)
t_x_488                                             1 	(obj:10)
t_x_495                                             1 	(obj:23)
t_x_496                                             1 	(obj:4)
t_x_499                                             1 	(obj:14)
t_x_500                                             1 	(obj:8)
t_x_504                                             1 	(obj:22)
t_x_508                                             1 	(obj:25)
t_x_512                                             1 	(obj:34)
t_x_513                                             1 	(obj:21)
t_x_515                                             1 	(obj:15)
t_x_516                                             1 	(obj:8)
t_x_520                                             1 	(obj:19)
t_x_521                                             1 	(obj:21)
t_x_522                                             1 	(obj:6)
t_x_526                                             1 	(obj:20)
t_x_530                                             1 	(obj:23)
t_x_533                                             1 	(obj:14)
t_x_538                                             1 	(obj:13)
t_x_540                                             1 	(obj:24)
t_x_542                                             1 	(obj:24)
t_x_546                                             1 	(obj:20)
t_x_550                                             1 	(obj:24)
t_x_551                                             1 	(obj:4)
t_x_557                                             1 	(obj:2)
t_x_560                                             1 	(obj:50)
t_x_563                                             1 	(obj:15)
t_x_565                                             1 	(obj:26)
t_x_566                                             1 	(obj:17)
t_x_568                                             1 	(obj:4)
t_x_571                                             1 	(obj:8)
t_x_574                                             1 	(obj:5)
t_x_576                                             1 	(obj:10)
t_x_589                                             1 	(obj:58)
t_x_592                                             1 	(obj:40)
t_x_597                                             1 	(obj:12)
t_x_600                                             1 	(obj:15)
t_x_602                                             1 	(obj:22)
t_x_617                                             1 	(obj:41)
t_x_618                                             1 	(obj:20)
t_x_620                                             1 	(obj:2)
t_x_634                                             1 	(obj:24)
t_x_636                                             1 	(obj:8)
t_x_638                                             1 	(obj:38)
t_x_639                                             1 	(obj:39)
t_x_640                                             1 	(obj:35)
t_x_641                                             1 	(obj:26)
t_x_643                                             1 	(obj:2)
t_x_645                                             1 	(obj:11)
t_x_647                                             1 	(obj:8)
t_x_655                                             1 	(obj:1)
t_x_658                                             1 	(obj:3)
t_x_661                                             1 	(obj:5)
t_x_668                                             1 	(obj:16)
t_x_669                                             1 	(obj:10)
t_x_681                                             1 	(obj:11)
t_x_683                                             1 	(obj:19)
t_x_688                                             1 	(obj:1)
t_x_689                                             1 	(obj:37)
t_x_692                                             1 	(obj:36)
t_x_696                                             1 	(obj:33)
t_x_697                                             1 	(obj:8)
t_x_698                                             1 	(obj:16)
t_x_699                                             1 	(obj:19)
t_x_700                                             1 	(obj:16)
t_x_702                                             1 	(obj:40)
t_x_711                                             1 	(obj:0)
t_x_713                                             1 	(obj:1)
t_x_715                                             1 	(obj:15)
t_x_716                                             1 	(obj:27)
t_x_717                                             1 	(obj:15)
t_x_720                                             1 	(obj:40)
t_x_721                                             1 	(obj:14)
t_x_723                                             1 	(obj:8)
t_x_724                                             1 	(obj:2)
t_x_730                                             1 	(obj:16)
t_x_733                                             1 	(obj:16)
t_x_735                                             1 	(obj:67)
t_x_737                                             1 	(obj:15)
t_x_741                                             1 	(obj:23)
t_x_742                                             1 	(obj:4)
t_x_747                                             1 	(obj:21)
t_x_752                                             1 	(obj:37)
t_x_754                                             1 	(obj:12)
t_x_755                                             1 	(obj:22)
t_x_756                                             1 	(obj:1)
t_x_757                                             1 	(obj:26)
t_x_759                                             1 	(obj:8)
t_x_761                                             1 	(obj:36)
t_x_763                                             1 	(obj:8)
t_x_765                                             1 	(obj:3)
t_x_773                                             1 	(obj:47)
t_x_783                                             1 	(obj:17)
t_x_790                                             1 	(obj:43)
t_x_791                                             1 	(obj:12)
t_x_794                                             1 	(obj:14)
t_x_803                                             1 	(obj:40)
t_x_806                                             1 	(obj:22)
t_x_808                                             1 	(obj:3)
t_x_815                                             1 	(obj:6)
t_x_817                                             1 	(obj:16)
t_x_819                                             1 	(obj:27)
t_x_823                                             1 	(obj:24)
t_x_827                                             1 	(obj:46)
t_x_829                                             1 	(obj:46)
t_x_830                                             1 	(obj:19)
t_x_831                                             1 	(obj:18)
t_x_832                                             1 	(obj:11)
t_x_833                                             1 	(obj:14)
t_x_835                                             1 	(obj:48)
t_x_839                                             1 	(obj:40)
t_x_844                                             1 	(obj:22)
t_x_850                                             1 	(obj:8)
t_x_853                                             1 	(obj:13)
t_x_854                                             1 	(obj:8)
t_x_859                                             1 	(obj:16)
t_x_865                                             1 	(obj:13)
t_x_871                                             1 	(obj:6)
t_x_872                                             1 	(obj:18)
t_x_873                                             1 	(obj:23)
t_x_874                                             1 	(obj:2)
t_x_876                                             1 	(obj:8)
t_x_878                                             1 	(obj:18)
t_x_882                                             1 	(obj:4)
t_x_884                                             1 	(obj:61)
t_x_885                                             1 	(obj:38)
t_x_888                                             1 	(obj:19)
t_x_890                                             1 	(obj:9)
t_x_895                                             1 	(obj:2)
t_x_897                                             1 	(obj:7)
t_x_901                                             1 	(obj:1)
t_x_905                                             1 	(obj:6)
t_x_909                                             1 	(obj:32)
t_x_917                                             1 	(obj:5)
t_x_918                                             1 	(obj:29)
t_x_921                                             1 	(obj:35)
t_x_924                                             1 	(obj:11)
t_x_926                                             1 	(obj:61)
t_x_928                                             1 	(obj:10)
t_x_933                                             1 	(obj:5)
t_x_935                                             1 	(obj:34)
t_x_936                                             1 	(obj:21)
t_x_941                                             1 	(obj:35)
t_x_948                                             1 	(obj:21)
t_x_950                                             1 	(obj:9)
t_x_956                                             1 	(obj:19)
t_x_959                                             1 	(obj:22)
t_x_961                                             1 	(obj:33)
t_x_962                                             1 	(obj:28)
t_x_965                                             1 	(obj:2)
t_x_971                                             1 	(obj:40)
t_x_973                                             1 	(obj:29)
t_x_974                                             1 	(obj:4)
t_x_976                                             1 	(obj:27)
t_x_977                                             1 	(obj:4)
t_x_978                                             1 	(obj:29)
t_x_979                                             1 	(obj:2)
t_x_985                                             1 	(obj:19)
t_x_988                                             1 	(obj:49)
t_x_989                                             1 	(obj:15)
t_x_1000                                            1 	(obj:49)
t_x_1002                                            1 	(obj:22)
t_x_1004                                            1 	(obj:22)
t_x_1007                                            1 	(obj:10)
t_x_1011                                            1 	(obj:23)
t_x_1012                                            1 	(obj:41)
t_x_1014                                            1 	(obj:13)
t_x_1016                                            1 	(obj:24)
t_x_1018                                            1 	(obj:10)
t_x_1019                                            1 	(obj:36)
t_x_1020                                            1 	(obj:4)
t_x_1021                                            1 	(obj:11)
t_x_1022                                            1 	(obj:39)
t_x_1023                                            1 	(obj:31)
t_x_1025                                            1 	(obj:24)
t_x_1031                                            1 	(obj:17)
t_x_1032                                            1 	(obj:12)
t_x_1033                                            1 	(obj:6)
t_x_1038                                            1 	(obj:30)
t_x_1039                                            1 	(obj:44)
t_x_1041                                            1 	(obj:34)
t_x_1042                                            1 	(obj:34)
t_x_1043                                            1 	(obj:21)
t_x_1046                                            1 	(obj:38)
t_x_1047                                            1 	(obj:30)
t_x_1052                                            1 	(obj:16)
t_x_1053                                            1 	(obj:29)
t_x_1057                                            1 	(obj:34)
t_x_1061                                            1 	(obj:12)
t_x_1063                                            1 	(obj:18)
t_x_1064                                            1 	(obj:5)
t_x_1066                                            1 	(obj:13)
t_x_1067                                            1 	(obj:49)
t_x_1068                                            1 	(obj:3)
t_x_1069                                            1 	(obj:52)
t_x_1071                                            1 	(obj:23)
t_x_1075                                            1 	(obj:26)
t_x_1076                                            1 	(obj:60)
t_x_1077                                            1 	(obj:21)
t_x_1080                                            1 	(obj:1)
t_x_1081                                            1 	(obj:2)
t_x_1083                                            1 	(obj:4)
t_x_1085                                            1 	(obj:8)
t_x_1086                                            1 	(obj:50)
t_x_1087                                            1 	(obj:38)
t_x_1088                                            1 	(obj:23)
t_x_1089                                            1 	(obj:15)
t_x_1092                                            1 	(obj:20)
t_x_1093                                            1 	(obj:3)
t_x_1101                                            1 	(obj:0)
t_x_1104                                            1 	(obj:25)
t_x_1105                                            1 	(obj:3)
t_x_1106                                            1 	(obj:14)
t_x_1110                                            1 	(obj:0)
t_x_1111                                            1 	(obj:2)
t_x_1114                                            1 	(obj:34)
t_x_1115                                            1 	(obj:3)
t_x_1119                                            1 	(obj:30)
t_x_1127                                            1 	(obj:12)
t_x_1142                                            1 	(obj:7)
t_x_1143                                            1 	(obj:65)
t_x_1148                                            1 	(obj:31)
t_x_1149                                            1 	(obj:3)
t_x_1150                                            1 	(obj:10)
t_x_1155                                            1 	(obj:3)
t_x_1156                                            1 	(obj:2)
t_x_1157                                            1 	(obj:21)
t_x_1159                                            1 	(obj:4)
t_x_1165                                            1 	(obj:17)
t_x_1171                                            1 	(obj:10)
t_x_1181                                            1 	(obj:44)
t_x_1182                                            1 	(obj:38)
t_x_1184                                            1 	(obj:44)
t_x_1185                                            1 	(obj:0)
t_x_1186                                            1 	(obj:29)
t_x_1188                                            1 	(obj:2)
t_x_1189                                            1 	(obj:7)
t_x_1195                                            1 	(obj:6)
t_x_1198                                            1 	(obj:5)
t_x_1208                                            1 	(obj:39)
t_x_1210                                            1 	(obj:31)
t_x_1219                                            1 	(obj:22)
t_x_1223                                            1 	(obj:4)
t_x_1225                                            1 	(obj:15)
t_x_1226                                            1 	(obj:5)
t_x_1233                                            1 	(obj:4)
t_x_1236                                            1 	(obj:47)
t_x_1237                                            1 	(obj:31)
t_x_1239                                            1 	(obj:25)
t_x_1241                                            1 	(obj:72)
t_x_1251                                            1 	(obj:13)
t_x_1252                                            1 	(obj:16)
t_x_1254                                            1 	(obj:31)
t_x_1256                                            1 	(obj:10)
t_x_1266                                            1 	(obj:23)
t_x_1269                                            1 	(obj:11)
t_x_1270                                            1 	(obj:15)
t_x_1274                                            1 	(obj:41)
t_x_1275                                            1 	(obj:48)
t_x_1276                                            1 	(obj:0)
t_x_1278                                            1 	(obj:3)
t_x_1281                                            1 	(obj:13)
t_x_1282                                            1 	(obj:4)
t_x_1287                                            1 	(obj:40)
t_x_1290                                            1 	(obj:17)
t_x_1291                                            1 	(obj:4)
t_x_1295                                            1 	(obj:34)
t_x_1298                                            1 	(obj:66)
t_x_1299                                            1 	(obj:35)
t_x_1304                                            1 	(obj:0)
t_x_1306                                            1 	(obj:5)
t_x_1310                                            1 	(obj:3)
t_x_1318                                            1 	(obj:3)
t_x_1329                                            1 	(obj:13)
t_x_1331                                            1 	(obj:7)
t_x_1332                                            1 	(obj:0)
t_x_1337                                            1 	(obj:1)
t_x_1344                                            1 	(obj:22)
t_x_1345                                            1 	(obj:62)
t_x_1350                                            1 	(obj:1)
t_x_1357                                            1 	(obj:35)
t_x_1362                                            1 	(obj:17)
t_x_1367                                            1 	(obj:9)
t_x_1370                                            1 	(obj:19)
t_x_1374                                            1 	(obj:6)
t_x_1375                                            1 	(obj:2)
t_x_1376                                            1 	(obj:28)
t_x_1379                                            1 	(obj:18)
t_x_1385                                            1 	(obj:27)
t_x_1397                                            1 	(obj:22)
t_x_1399                                            1 	(obj:16)
t_x_1404                                            1 	(obj:12)
t_x_1405                                            1 	(obj:30)
t_x_1407                                            1 	(obj:38)
t_x_1408                                            1 	(obj:3)
t_x_1409                                            1 	(obj:9)
t_x_1410                                            1 	(obj:8)
t_x_1424                                            1 	(obj:6)
t_x_1425                                            1 	(obj:11)
t_x_1432                                            1 	(obj:46)
t_x_1439                                            1 	(obj:9)
t_x_1440                                            1 	(obj:28)
t_x_1441                                            1 	(obj:8)
t_x_1444                                            1 	(obj:22)
t_x_1448                                            1 	(obj:39)
t_x_1451                                            1 	(obj:31)
t_x_1452                                            1 	(obj:21)
t_x_1454                                            1 	(obj:14)
t_x_1457                                            1 	(obj:41)
t_x_1465                                            1 	(obj:15)
t_x_1472                                            1 	(obj:20)
t_x_1473                                            1 	(obj:29)
t_x_1479                                            1 	(obj:38)
t_x_1482                                            1 	(obj:4)
t_x_1488                                            1 	(obj:3)
t_x_1492                                            1 	(obj:45)
t_x_1493                                            1 	(obj:2)
t_x_1496                                            1 	(obj:2)
t_x_1502                                            1 	(obj:31)
t_x_1503                                            1 	(obj:30)
t_x_1504                                            1 	(obj:2)
t_x_1507                                            1 	(obj:30)
t_x_1509                                            1 	(obj:20)
t_x_1523                                            1 	(obj:2)
t_x_1530                                            1 	(obj:16)
t_x_1533                                            1 	(obj:3)
t_x_1551                                            1 	(obj:3)
t_x_1552                                            1 	(obj:25)
t_x_1558                                            1 	(obj:26)
t_x_1560                                            1 	(obj:13)
t_x_1564                                            1 	(obj:34)
t_x_1566                                            1 	(obj:18)
t_x_1569                                            1 	(obj:0)
t_x_1572                                            1 	(obj:7)
t_x_1575                                            1 	(obj:13)
t_x_1577                                            1 	(obj:19)
t_x_1584                                            1 	(obj:29)
t_x_1587                                            1 	(obj:28)
t_x_1588                                            1 	(obj:37)
t_x_1596                                            1 	(obj:17)
t_x_1605                                            1 	(obj:3)
t_x_1607                                            1 	(obj:5)
t_x_1608                                            1 	(obj:16)
t_x_1610                                            1 	(obj:18)
t_x_1616                                            1 	(obj:20)
t_x_1622                                            1 	(obj:2)
t_x_1623                                            1 	(obj:8)
t_x_1624                                            1 	(obj:20)
t_x_1628                                            1 	(obj:21)
t_x_1635                                            1 	(obj:33)
t_x_1639                                            1 	(obj:9)
t_x_1640                                            1 	(obj:4)
t_x_1642                                            1 	(obj:17)
t_x_1644                                            1 	(obj:26)
t_x_1646                                            1 	(obj:42)
t_x_1647                                            1 	(obj:43)
t_x_1648                                            1 	(obj:19)
t_x_1655                                            1 	(obj:21)
t_x_1659                                            1 	(obj:12)
t_x_1660                                            1 	(obj:3)
t_x_1661                                            1 	(obj:11)
t_x_1666                                            1 	(obj:9)
t_x_1668                                            1 	(obj:12)
t_x_1669                                            1 	(obj:21)
t_x_1676                                            1 	(obj:0)
t_x_1684                                            1 	(obj:39)
t_x_1685                                            1 	(obj:13)
t_x_1688                                            1 	(obj:1)
t_x_1698                                            1 	(obj:15)
t_x_1699                                            1 	(obj:11)
t_x_1701                                            1 	(obj:14)
t_x_1703                                            1 	(obj:11)
t_x_1704                                            1 	(obj:7)
t_x_1705                                            1 	(obj:57)
t_x_1707                                            1 	(obj:6)
t_x_1708                                            1 	(obj:1)
t_x_1714                                            1 	(obj:31)
t_x_1715                                            1 	(obj:10)
t_x_1719                                            1 	(obj:9)
t_x_1720                                            1 	(obj:76)
t_x_1722                                            1 	(obj:8)
t_x_1723                                            1 	(obj:25)
t_x_1727                                            1 	(obj:7)
t_x_1729                                            1 	(obj:17)
t_x_1730                                            1 	(obj:1)
t_x_1731                                            1 	(obj:14)
t_x_1732                                            1 	(obj:10)
t_x_1736                                            1 	(obj:19)
t_x_1737                                            1 	(obj:4)
t_x_1741                                            1 	(obj:7)
t_x_1748                                            1 	(obj:43)
t_x_1751                                            1 	(obj:69)
t_x_1757                                            1 	(obj:1)
t_x_1761                                            1 	(obj:1)
t_x_1762                                            1 	(obj:17)
t_x_1767                                            1 	(obj:27)
t_x_1768                                            1 	(obj:8)
t_x_1771                                            1 	(obj:19)
t_x_1772                                            1 	(obj:4)
t_x_1777                                            1 	(obj:43)
t_x_1779                                            1 	(obj:5)
t_x_1783                                            1 	(obj:11)
t_x_1787                                            1 	(obj:28)
t_x_1797                                            1 	(obj:0)
t_x_1798                                            1 	(obj:12)
t_x_1799                                            1 	(obj:30)
t_x_1803                                            1 	(obj:15)
t_x_1807                                            1 	(obj:48)
t_x_1811                                            1 	(obj:36)
t_x_1813                                            1 	(obj:12)
t_x_1827                                            1 	(obj:79)
t_x_1839                                            1 	(obj:9)
t_x_1846                                            1 	(obj:5)
t_x_1849                                            1 	(obj:9)
t_x_1851                                            1 	(obj:49)
t_x_1857                                            1 	(obj:19)
t_x_1859                                            1 	(obj:58)
t_x_1864                                            1 	(obj:0)
t_x_1865                                            1 	(obj:8)
t_x_1866                                            1 	(obj:24)
t_x_1871                                            1 	(obj:26)
t_x_1872                                            1 	(obj:8)
t_x_1873                                            1 	(obj:41)
t_x_1876                                            1 	(obj:2)
t_x_1878                                            1 	(obj:3)
t_x_1879                                            1 	(obj:19)
t_x_1881                                            1 	(obj:39)
t_x_1886                                            1 	(obj:7)
t_x_1888                                            1 	(obj:8)
t_x_1889                                            1 	(obj:44)
t_x_1892                                            1 	(obj:37)
t_x_1893                                            1 	(obj:14)
t_x_1905                                            1 	(obj:5)
t_x_1906                                            1 	(obj:39)
t_x_1911                                            1 	(obj:19)
t_x_1913                                            1 	(obj:16)
t_x_1920                                            1 	(obj:26)
t_x_1921                                            1 	(obj:11)
t_x_1924                                            1 	(obj:40)
t_x_1925                                            1 	(obj:20)
t_x_1928                                            1 	(obj:16)
t_x_1929                                            1 	(obj:3)
t_x_1936                                            1 	(obj:14)
t_x_1938                                            1 	(obj:37)
t_x_1941                                            1 	(obj:8)
t_x_1943                                            1 	(obj:4)
t_x_1944                                            1 	(obj:59)
t_x_1946                                            1 	(obj:48)
t_x_1947                                            1 	(obj:11)
t_x_1949                                            1 	(obj:50)
t_x_1951                                            1 	(obj:24)
t_x_1958                                            1 	(obj:28)
t_x_1962                                            1 	(obj:9)
t_x_1963                                            1 	(obj:0)
t_x_1964                                            1 	(obj:20)
t_x_1966                                            1 	(obj:31)
t_x_1974                                            1 	(obj:13)
t_x_1976                                            1 	(obj:20)
t_x_1978                                            1 	(obj:0)
t_x_1979                                            1 	(obj:3)
t_x_1981                                            1 	(obj:9)
t_x_1983                                            1 	(obj:31)
t_x_1984                                            1 	(obj:14)
t_x_1989                                            1 	(obj:16)
t_x_1993                                            1 	(obj:6)
t_x_1996                                            1 	(obj:31)
